min:4x25 4x13 6x12 6x21 9x76 3x63 4x31 9x67 3x43 1x35 1x41 3x34 4x75 3x36 4x64 1x53 4x46 4x52 4x57 1x14 ;
 x12 - x21  x13 - x31  x14 - x41 = 0;
 x21 - x12  x25 - x52 = 0;
 x31 - x13  x34 - x43  x35 - x53  x36 - x63 = -10;
 x41 - x14  x43 - x34  x46 - x64 = 0;
 x52 - x25  x53 - x35  x57 - x75 = 0;
 x63 - x36  x64 - x46  x67 - x76 = 0;
 x75 - x57  x76 - x67 = 10;

